NAME: bays29
COMMENT: kair testing
TYPE: CVRP
DIMENSION: 7
EDGE_WEIGHT_TYPE: EXPLICIT
EDGE_WEIGHT_FORMAT: FULL_MATRIX
CAPACITY: 10000
NODE_COORD_SECTION
   1    1150  1760
   2     630  1660
   3      40  2090
   4     750  1100
   5     750  2030
   6    1030  2070
   7	750	  1660
EDGE_WEIGHT_SECTION
0	35	65	69	40	21	50
35	0	35	84	60	51	57
65	35	0	116	90	85	71
69	84	116	0	50	80	46
40	60	90	50	0	55	30
21	51	85	80	55	0	55
50	57	71	46	30	55	0
DEMAND_SECTION
1 0 0 0
2 20050 0 0
3 0 0 6860
4 31000 17500 0
5 24760 0 0
6 10000 0 0
7 9660 0 0
DEPOT_SECTION
 1
 -1
CAPACITY_SECTION
1 10000
2 10000
3 10000
4 10000
5 10000
EOF